p cnf 199 1020
c p weight 12 0 0
c p weight -12 1 0
c p weight 13 1.0 0
c p weight -13 1 0
c p weight 20 0 0
c p weight -20 1 0
c p weight 21 1.0 0
c p weight -21 1 0
c p weight 29 0.9560013178130891 0
c p weight -29 1 0
c p weight 30 0.2933623703538629 0
c p weight -30 1 0
c p weight 38 0 0
c p weight -38 1 0
c p weight 39 1.0 0
c p weight -39 1 0
c p weight 47 0.9560013178130891 0
c p weight -47 1 0
c p weight 48 0.2933623703538629 0
c p weight -48 1 0
c p weight 56 0 0
c p weight -56 1 0
c p weight 57 1.0 0
c p weight -57 1 0
c p weight 60 0.145790165424214 0
c p weight -60 1 0
c p weight 61 0.9893155349359376 0
c p weight -61 1 0
c p weight 64 0 0
c p weight -64 1 0
c p weight 65 1.0 0
c p weight -65 1 0
c p weight 68 0 0
c p weight -68 1 0
c p weight 69 1.0 0
c p weight -69 1 0
c p weight 75 0.9560013178130891 0
c p weight -75 1 0
c p weight 76 0.2933623703538629 0
c p weight -76 1 0
c p weight 84 0 0
c p weight -84 1 0
c p weight 85 1.0 0
c p weight -85 1 0
c p weight 88 0.145790165424214 0
c p weight -88 1 0
c p weight 89 0.9893155349359376 0
c p weight -89 1 0
c p weight 92 0 0
c p weight -92 1 0
c p weight 93 1.0 0
c p weight -93 1 0
c p weight 96 0 0
c p weight -96 1 0
c p weight 97 1.0 0
c p weight -97 1 0
c p weight 103 0.7022530887263783 0
c p weight -103 1 0
c p weight 104 0.7119273834979671 0
c p weight -104 1 0
c p weight 112 0 0
c p weight -112 1 0
c p weight 113 1.0 0
c p weight -113 1 0
c p weight 116 0.145790165424214 0
c p weight -116 1 0
c p weight 117 0.9893155349359376 0
c p weight -117 1 0
c p weight 120 0 0
c p weight -120 1 0
c p weight 121 1.0 0
c p weight -121 1 0
c p weight 124 0 0
c p weight -124 1 0
c p weight 125 1.0 0
c p weight -125 1 0
c p weight 131 0.7022530887263783 0
c p weight -131 1 0
c p weight 132 0.7119273834979671 0
c p weight -132 1 0
c p weight 140 0 0
c p weight -140 1 0
c p weight 141 1.0 0
c p weight -141 1 0
c p weight 144 0.7081699425274296 0
c p weight -144 1 0
c p weight 145 -0.7060420189342111 0
c p weight -145 1 0
c p weight 148 0 0
c p weight -148 1 0
c p weight 149 1.0 0
c p weight -149 1 0
c p weight 152 0 0
c p weight -152 1 0
c p weight 153 1.0 0
c p weight -153 1 0
c p weight 159 0.7022530887263783 0
c p weight -159 1 0
c p weight 160 0.7119273834979671 0
c p weight -160 1 0
c p weight 168 0 0
c p weight -168 1 0
c p weight 169 1.0 0
c p weight -169 1 0
c p weight 172 0.7081699425274296 0
c p weight -172 1 0
c p weight 173 -0.7060420189342111 0
c p weight -173 1 0
c p weight 176 0 0
c p weight -176 1 0
c p weight 177 1.0 0
c p weight -177 1 0
c p weight 180 0 0
c p weight -180 1 0
c p weight 181 1.0 0
c p weight -181 1 0
c p weight 186 0 0
c p weight -186 1 0
c p weight 187 1.0 0
c p weight -187 1 0
c p weight 190 0.7081699425274296 0
c p weight -190 1 0
c p weight 191 -0.7060420189342111 0
c p weight -191 1 0
c p weight 194 0 0
c p weight -194 1 0
c p weight 195 1.0 0
c p weight -195 1 0
c p weight 198 0 0
c p weight -198 1 0
c p weight 199 1.0 0
c p weight -199 1 0
8 -7 1 0
8 -7 2 0
-8 7 1 0
-8 7 2 0
8 7 -1 -2 0
-8 -7 -1 -2 0
9 1 -2 0
9 -1 2 0
-9 1 2 0
-9 -1 -2 0
10 11 -8 0
10 -8 9 0
-10 11 8 0
-10 8 9 0
10 -8 -1 0
-10 8 -1 0
10 -11 8 1 -9 0
-10 -11 -8 1 -9 0
11 -1 9 0
-11 1 9 0
-12 9 0
11 -12 -1 0
-11 -12 1 0
11 12 1 -9 0
-11 12 -1 -9 0
-13 9 0
11 -13 1 0
-11 -13 -1 0
11 13 -1 -9 0
-11 13 1 -9 0
14 -10 11 0
14 -10 9 0
-14 10 11 0
-14 10 9 0
14 10 -11 -9 0
-14 -10 -11 -9 0
15 11 -9 0
15 -11 9 0
-15 11 9 0
-15 -11 -9 0
16 -14 3 0
16 -14 4 0
-16 14 3 0
-16 14 4 0
16 14 -3 -4 0
-16 -14 -3 -4 0
17 3 -4 0
17 -3 4 0
-17 3 4 0
-17 -3 -4 0
18 19 -16 0
18 -16 17 0
-18 19 16 0
-18 16 17 0
18 -16 -3 0
-18 16 -3 0
18 -19 16 3 -17 0
-18 -19 -16 3 -17 0
19 -3 17 0
-19 3 17 0
-20 17 0
19 -20 -3 0
-19 -20 3 0
19 20 3 -17 0
-19 20 -3 -17 0
-21 17 0
19 -21 3 0
-19 -21 -3 0
19 21 -3 -17 0
-19 21 3 -17 0
22 -18 19 0
22 -18 17 0
-22 18 19 0
-22 18 17 0
22 18 -19 -17 0
-22 -18 -19 -17 0
23 19 -17 0
23 -19 17 0
-23 19 17 0
-23 -19 -17 0
24 -22 11 0
24 -22 23 0
-24 22 11 0
-24 22 23 0
24 -22 19 -15 0
24 -22 -19 15 0
-24 22 19 -15 0
-24 22 -19 15 0
24 22 -11 19 15 -23 0
24 22 -11 -19 -15 -23 0
-24 -22 -11 19 15 -23 0
-24 -22 -11 -19 -15 -23 0
26 11 -19 0
26 -11 19 0
-26 11 19 0
-26 -11 -19 0
25 15 -23 0
25 -15 23 0
-25 15 23 0
-25 -15 -23 0
27 -24 26 0
27 -24 23 0
-27 24 26 0
-27 24 23 0
27 -28 -24 0
-27 -28 24 0
27 28 24 -26 -23 0
-27 28 -24 -26 -23 0
28 26 -23 0
-28 26 23 0
-29 26 0
28 -29 -23 0
-28 -29 23 0
28 29 -26 23 0
-28 29 -26 -23 0
-30 26 0
28 -30 23 0
-28 -30 -23 0
28 30 -26 -23 0
-28 30 -26 23 0
31 -27 11 0
31 -27 28 0
-31 27 11 0
-31 27 28 0
31 -27 26 -25 0
31 -27 -26 25 0
-31 27 26 -25 0
-31 27 -26 25 0
31 27 -11 26 25 -28 0
31 27 -11 -26 -25 -28 0
-31 -27 -11 26 25 -28 0
-31 -27 -11 -26 -25 -28 0
33 11 -26 0
33 -11 26 0
-33 11 26 0
-33 -11 -26 0
32 25 -28 0
32 -25 28 0
-32 25 28 0
-32 -25 -28 0
34 -31 5 0
34 -31 6 0
-34 31 5 0
-34 31 6 0
34 31 -5 -6 0
-34 -31 -5 -6 0
35 5 -6 0
35 -5 6 0
-35 5 6 0
-35 -5 -6 0
36 37 -34 0
36 -34 35 0
-36 37 34 0
-36 34 35 0
36 -34 -5 0
-36 34 -5 0
36 -37 34 5 -35 0
-36 -37 -34 5 -35 0
37 -5 35 0
-37 5 35 0
-38 35 0
37 -38 -5 0
-37 -38 5 0
37 38 5 -35 0
-37 38 -5 -35 0
-39 35 0
37 -39 5 0
-37 -39 -5 0
37 39 -5 -35 0
-37 39 5 -35 0
40 -36 37 0
40 -36 35 0
-40 36 37 0
-40 36 35 0
40 36 -37 -35 0
-40 -36 -37 -35 0
41 37 -35 0
41 -37 35 0
-41 37 35 0
-41 -37 -35 0
42 -40 11 0
42 -40 41 0
-42 40 11 0
-42 40 41 0
42 -40 37 -32 0
42 -40 -37 32 0
-42 40 37 -32 0
-42 40 -37 32 0
42 40 -11 37 32 -41 0
42 40 -11 -37 -32 -41 0
-42 -40 -11 37 32 -41 0
-42 -40 -11 -37 -32 -41 0
44 11 -37 0
44 -11 37 0
-44 11 37 0
-44 -11 -37 0
43 32 -41 0
43 -32 41 0
-43 32 41 0
-43 -32 -41 0
45 -42 44 0
45 -42 41 0
-45 42 44 0
-45 42 41 0
45 -46 -42 0
-45 -46 42 0
45 46 42 -44 -41 0
-45 46 -42 -44 -41 0
46 44 -41 0
-46 44 41 0
-47 44 0
46 -47 -41 0
-46 -47 41 0
46 47 -44 41 0
-46 47 -44 -41 0
-48 44 0
46 -48 41 0
-46 -48 -41 0
46 48 -44 -41 0
-46 48 -44 41 0
49 -45 11 0
49 -45 46 0
-49 45 11 0
-49 45 46 0
49 -45 44 -43 0
49 -45 -44 43 0
-49 45 44 -43 0
-49 45 -44 43 0
49 45 -11 44 43 -46 0
49 45 -11 -44 -43 -46 0
-49 -45 -11 44 43 -46 0
-49 -45 -11 -44 -43 -46 0
51 11 -44 0
51 -11 44 0
-51 11 44 0
-51 -11 -44 0
50 43 -46 0
50 -43 46 0
-50 43 46 0
-50 -43 -46 0
52 -49 11 0
52 -49 50 0
-52 49 11 0
-52 49 50 0
52 49 -11 -50 0
-52 -49 -11 -50 0
53 11 -50 0
53 -11 50 0
-53 11 50 0
-53 -11 -50 0
54 55 -52 0
54 -52 53 0
-54 55 52 0
-54 52 53 0
54 -52 -11 0
-54 52 -11 0
54 -55 52 11 -53 0
-54 -55 -52 11 -53 0
55 -11 53 0
-55 11 53 0
-56 53 0
55 -56 -11 0
-55 -56 11 0
55 56 11 -53 0
-55 56 -11 -53 0
-57 53 0
55 -57 11 0
-55 -57 -11 0
55 57 -11 -53 0
-55 57 11 -53 0
58 -54 55 0
58 -54 53 0
-58 54 55 0
-58 54 53 0
58 -59 -54 0
-58 -59 54 0
58 59 54 -55 -53 0
-58 59 -54 -55 -53 0
59 55 -53 0
-59 55 53 0
-60 55 0
59 -60 -53 0
-59 -60 53 0
59 60 -55 53 0
-59 60 -55 -53 0
-61 55 0
59 -61 53 0
-59 -61 -53 0
59 61 -55 -53 0
-59 61 -55 53 0
62 63 -58 0
62 -58 59 0
-62 63 58 0
-62 58 59 0
62 -58 -55 0
-62 58 -55 0
62 -63 58 55 -59 0
-62 -63 -58 55 -59 0
63 -55 59 0
-63 55 59 0
-64 59 0
63 -64 -55 0
-63 -64 55 0
63 64 55 -59 0
-63 64 -55 -59 0
-65 59 0
63 -65 55 0
-63 -65 -55 0
63 65 -55 -59 0
-63 65 55 -59 0
66 -62 63 0
66 -62 59 0
-66 62 63 0
-66 62 59 0
66 -67 -62 0
-66 -67 62 0
66 67 62 -63 -59 0
-66 67 -62 -63 -59 0
67 63 -59 0
-67 63 59 0
-68 63 0
67 -68 -59 0
-67 -68 59 0
67 68 -63 59 0
-67 68 -63 -59 0
-69 63 0
67 -69 59 0
-67 -69 -59 0
67 69 -63 -59 0
-67 69 -63 59 0
70 -66 33 0
70 -66 46 0
-70 66 33 0
-70 66 46 0
70 -66 51 -28 0
70 -66 -51 28 0
-70 66 51 -28 0
-70 66 -51 28 0
70 66 -33 51 28 -46 0
70 66 -33 -51 -28 -46 0
-70 -66 -33 51 28 -46 0
-70 -66 -33 -51 -28 -46 0
72 33 -51 0
72 -33 51 0
-72 33 51 0
-72 -33 -51 0
71 28 -46 0
71 -28 46 0
-71 28 46 0
-71 -28 -46 0
73 -70 72 0
73 -70 46 0
-73 70 72 0
-73 70 46 0
73 -74 -70 0
-73 -74 70 0
73 74 70 -72 -46 0
-73 74 -70 -72 -46 0
74 72 -46 0
-74 72 46 0
-75 72 0
74 -75 -46 0
-74 -75 46 0
74 75 -72 46 0
-74 75 -72 -46 0
-76 72 0
74 -76 46 0
-74 -76 -46 0
74 76 -72 -46 0
-74 76 -72 46 0
77 -73 33 0
77 -73 74 0
-77 73 33 0
-77 73 74 0
77 -73 72 -71 0
77 -73 -72 71 0
-77 73 72 -71 0
-77 73 -72 71 0
77 73 -33 72 71 -74 0
77 73 -33 -72 -71 -74 0
-77 -73 -33 72 71 -74 0
-77 -73 -33 -72 -71 -74 0
79 33 -72 0
79 -33 72 0
-79 33 72 0
-79 -33 -72 0
78 71 -74 0
78 -71 74 0
-78 71 74 0
-78 -71 -74 0
80 -77 33 0
80 -77 78 0
-80 77 33 0
-80 77 78 0
80 77 -33 -78 0
-80 -77 -33 -78 0
81 33 -78 0
81 -33 78 0
-81 33 78 0
-81 -33 -78 0
82 83 -80 0
82 -80 81 0
-82 83 80 0
-82 80 81 0
82 -80 -33 0
-82 80 -33 0
82 -83 80 33 -81 0
-82 -83 -80 33 -81 0
83 -33 81 0
-83 33 81 0
-84 81 0
83 -84 -33 0
-83 -84 33 0
83 84 33 -81 0
-83 84 -33 -81 0
-85 81 0
83 -85 33 0
-83 -85 -33 0
83 85 -33 -81 0
-83 85 33 -81 0
86 -82 83 0
86 -82 81 0
-86 82 83 0
-86 82 81 0
86 -87 -82 0
-86 -87 82 0
86 87 82 -83 -81 0
-86 87 -82 -83 -81 0
87 83 -81 0
-87 83 81 0
-88 83 0
87 -88 -81 0
-87 -88 81 0
87 88 -83 81 0
-87 88 -83 -81 0
-89 83 0
87 -89 81 0
-87 -89 -81 0
87 89 -83 -81 0
-87 89 -83 81 0
90 91 -86 0
90 -86 87 0
-90 91 86 0
-90 86 87 0
90 -86 -83 0
-90 86 -83 0
90 -91 86 83 -87 0
-90 -91 -86 83 -87 0
91 -83 87 0
-91 83 87 0
-92 87 0
91 -92 -83 0
-91 -92 83 0
91 92 83 -87 0
-91 92 -83 -87 0
-93 87 0
91 -93 83 0
-91 -93 -83 0
91 93 -83 -87 0
-91 93 83 -87 0
94 -90 91 0
94 -90 87 0
-94 90 91 0
-94 90 87 0
94 -95 -90 0
-94 -95 90 0
94 95 90 -91 -87 0
-94 95 -90 -91 -87 0
95 91 -87 0
-95 91 87 0
-96 91 0
95 -96 -87 0
-95 -96 87 0
95 96 -91 87 0
-95 96 -91 -87 0
-97 91 0
95 -97 87 0
-95 -97 -87 0
95 97 -91 -87 0
-95 97 -91 87 0
98 -94 63 0
98 -94 95 0
-98 94 63 0
-98 94 95 0
98 -94 91 -67 0
98 -94 -91 67 0
-98 94 91 -67 0
-98 94 -91 67 0
98 94 -63 91 67 -95 0
98 94 -63 -91 -67 -95 0
-98 -94 -63 91 67 -95 0
-98 -94 -63 -91 -67 -95 0
100 63 -91 0
100 -63 91 0
-100 63 91 0
-100 -63 -91 0
99 67 -95 0
99 -67 95 0
-99 67 95 0
-99 -67 -95 0
101 -98 100 0
101 -98 95 0
-101 98 100 0
-101 98 95 0
101 -102 -98 0
-101 -102 98 0
101 102 98 -100 -95 0
-101 102 -98 -100 -95 0
102 100 -95 0
-102 100 95 0
-103 100 0
102 -103 -95 0
-102 -103 95 0
102 103 -100 95 0
-102 103 -100 -95 0
-104 100 0
102 -104 95 0
-102 -104 -95 0
102 104 -100 -95 0
-102 104 -100 95 0
105 -101 63 0
105 -101 102 0
-105 101 63 0
-105 101 102 0
105 -101 100 -99 0
105 -101 -100 99 0
-105 101 100 -99 0
-105 101 -100 99 0
105 101 -63 100 99 -102 0
105 101 -63 -100 -99 -102 0
-105 -101 -63 100 99 -102 0
-105 -101 -63 -100 -99 -102 0
107 63 -100 0
107 -63 100 0
-107 63 100 0
-107 -63 -100 0
106 99 -102 0
106 -99 102 0
-106 99 102 0
-106 -99 -102 0
108 -105 79 0
108 -105 74 0
-108 105 79 0
-108 105 74 0
108 105 -79 -74 0
-108 -105 -79 -74 0
109 79 -74 0
109 -79 74 0
-109 79 74 0
-109 -79 -74 0
110 111 -108 0
110 -108 109 0
-110 111 108 0
-110 108 109 0
110 -108 -79 0
-110 108 -79 0
110 -111 108 79 -109 0
-110 -111 -108 79 -109 0
111 -79 109 0
-111 79 109 0
-112 109 0
111 -112 -79 0
-111 -112 79 0
111 112 79 -109 0
-111 112 -79 -109 0
-113 109 0
111 -113 79 0
-111 -113 -79 0
111 113 -79 -109 0
-111 113 79 -109 0
114 -110 111 0
114 -110 109 0
-114 110 111 0
-114 110 109 0
114 -115 -110 0
-114 -115 110 0
114 115 110 -111 -109 0
-114 115 -110 -111 -109 0
115 111 -109 0
-115 111 109 0
-116 111 0
115 -116 -109 0
-115 -116 109 0
115 116 -111 109 0
-115 116 -111 -109 0
-117 111 0
115 -117 109 0
-115 -117 -109 0
115 117 -111 -109 0
-115 117 -111 109 0
118 119 -114 0
118 -114 115 0
-118 119 114 0
-118 114 115 0
118 -114 -111 0
-118 114 -111 0
118 -119 114 111 -115 0
-118 -119 -114 111 -115 0
119 -111 115 0
-119 111 115 0
-120 115 0
119 -120 -111 0
-119 -120 111 0
119 120 111 -115 0
-119 120 -111 -115 0
-121 115 0
119 -121 111 0
-119 -121 -111 0
119 121 -111 -115 0
-119 121 111 -115 0
122 -118 119 0
122 -118 115 0
-122 118 119 0
-122 118 115 0
122 -123 -118 0
-122 -123 118 0
122 123 118 -119 -115 0
-122 123 -118 -119 -115 0
123 119 -115 0
-123 119 115 0
-124 119 0
123 -124 -115 0
-123 -124 115 0
123 124 -119 115 0
-123 124 -119 -115 0
-125 119 0
123 -125 115 0
-123 -125 -115 0
123 125 -119 -115 0
-123 125 -119 115 0
126 -122 63 0
126 -122 123 0
-126 122 63 0
-126 122 123 0
126 -122 119 -106 0
126 -122 -119 106 0
-126 122 119 -106 0
-126 122 -119 106 0
126 122 -63 119 106 -123 0
126 122 -63 -119 -106 -123 0
-126 -122 -63 119 106 -123 0
-126 -122 -63 -119 -106 -123 0
128 63 -119 0
128 -63 119 0
-128 63 119 0
-128 -63 -119 0
127 106 -123 0
127 -106 123 0
-127 106 123 0
-127 -106 -123 0
129 -126 128 0
129 -126 123 0
-129 126 128 0
-129 126 123 0
129 -130 -126 0
-129 -130 126 0
129 130 126 -128 -123 0
-129 130 -126 -128 -123 0
130 128 -123 0
-130 128 123 0
-131 128 0
130 -131 -123 0
-130 -131 123 0
130 131 -128 123 0
-130 131 -128 -123 0
-132 128 0
130 -132 123 0
-130 -132 -123 0
130 132 -128 -123 0
-130 132 -128 123 0
133 -129 63 0
133 -129 130 0
-133 129 63 0
-133 129 130 0
133 -129 128 -127 0
133 -129 -128 127 0
-133 129 128 -127 0
-133 129 -128 127 0
133 129 -63 128 127 -130 0
133 129 -63 -128 -127 -130 0
-133 -129 -63 128 127 -130 0
-133 -129 -63 -128 -127 -130 0
135 63 -128 0
135 -63 128 0
-135 63 128 0
-135 -63 -128 0
134 127 -130 0
134 -127 130 0
-134 127 130 0
-134 -127 -130 0
136 -133 63 0
136 -133 134 0
-136 133 63 0
-136 133 134 0
136 133 -63 -134 0
-136 -133 -63 -134 0
137 63 -134 0
137 -63 134 0
-137 63 134 0
-137 -63 -134 0
138 139 -136 0
138 -136 137 0
-138 139 136 0
-138 136 137 0
138 -136 -63 0
-138 136 -63 0
138 -139 136 63 -137 0
-138 -139 -136 63 -137 0
139 -63 137 0
-139 63 137 0
-140 137 0
139 -140 -63 0
-139 -140 63 0
139 140 63 -137 0
-139 140 -63 -137 0
-141 137 0
139 -141 63 0
-139 -141 -63 0
139 141 -63 -137 0
-139 141 63 -137 0
142 -138 139 0
142 -138 137 0
-142 138 139 0
-142 138 137 0
142 -143 -138 0
-142 -143 138 0
142 143 138 -139 -137 0
-142 143 -138 -139 -137 0
143 139 -137 0
-143 139 137 0
-144 139 0
143 -144 -137 0
-143 -144 137 0
143 144 -139 137 0
-143 144 -139 -137 0
-145 139 0
143 -145 137 0
-143 -145 -137 0
143 145 -139 -137 0
-143 145 -139 137 0
146 147 -142 0
146 -142 143 0
-146 147 142 0
-146 142 143 0
146 -142 -139 0
-146 142 -139 0
146 -147 142 139 -143 0
-146 -147 -142 139 -143 0
147 -139 143 0
-147 139 143 0
-148 143 0
147 -148 -139 0
-147 -148 139 0
147 148 139 -143 0
-147 148 -139 -143 0
-149 143 0
147 -149 139 0
-147 -149 -139 0
147 149 -139 -143 0
-147 149 139 -143 0
150 -146 147 0
150 -146 143 0
-150 146 147 0
-150 146 143 0
150 -151 -146 0
-150 -151 146 0
150 151 146 -147 -143 0
-150 151 -146 -147 -143 0
151 147 -143 0
-151 147 143 0
-152 147 0
151 -152 -143 0
-151 -152 143 0
151 152 -147 143 0
-151 152 -147 -143 0
-153 147 0
151 -153 143 0
-151 -153 -143 0
151 153 -147 -143 0
-151 153 -147 143 0
154 -150 107 0
154 -150 130 0
-154 150 107 0
-154 150 130 0
154 -150 135 -102 0
154 -150 -135 102 0
-154 150 135 -102 0
-154 150 -135 102 0
154 150 -107 135 102 -130 0
154 150 -107 -135 -102 -130 0
-154 -150 -107 135 102 -130 0
-154 -150 -107 -135 -102 -130 0
156 107 -135 0
156 -107 135 0
-156 107 135 0
-156 -107 -135 0
155 102 -130 0
155 -102 130 0
-155 102 130 0
-155 -102 -130 0
157 -154 156 0
157 -154 130 0
-157 154 156 0
-157 154 130 0
157 -158 -154 0
-157 -158 154 0
157 158 154 -156 -130 0
-157 158 -154 -156 -130 0
158 156 -130 0
-158 156 130 0
-159 156 0
158 -159 -130 0
-158 -159 130 0
158 159 -156 130 0
-158 159 -156 -130 0
-160 156 0
158 -160 130 0
-158 -160 -130 0
158 160 -156 -130 0
-158 160 -156 130 0
161 -157 107 0
161 -157 158 0
-161 157 107 0
-161 157 158 0
161 -157 156 -155 0
161 -157 -156 155 0
-161 157 156 -155 0
-161 157 -156 155 0
161 157 -107 156 155 -158 0
161 157 -107 -156 -155 -158 0
-161 -157 -107 156 155 -158 0
-161 -157 -107 -156 -155 -158 0
163 107 -156 0
163 -107 156 0
-163 107 156 0
-163 -107 -156 0
162 155 -158 0
162 -155 158 0
-162 155 158 0
-162 -155 -158 0
164 -161 107 0
164 -161 162 0
-164 161 107 0
-164 161 162 0
164 161 -107 -162 0
-164 -161 -107 -162 0
165 107 -162 0
165 -107 162 0
-165 107 162 0
-165 -107 -162 0
166 167 -164 0
166 -164 165 0
-166 167 164 0
-166 164 165 0
166 -164 -107 0
-166 164 -107 0
166 -167 164 107 -165 0
-166 -167 -164 107 -165 0
167 -107 165 0
-167 107 165 0
-168 165 0
167 -168 -107 0
-167 -168 107 0
167 168 107 -165 0
-167 168 -107 -165 0
-169 165 0
167 -169 107 0
-167 -169 -107 0
167 169 -107 -165 0
-167 169 107 -165 0
170 -166 167 0
170 -166 165 0
-170 166 167 0
-170 166 165 0
170 -171 -166 0
-170 -171 166 0
170 171 166 -167 -165 0
-170 171 -166 -167 -165 0
171 167 -165 0
-171 167 165 0
-172 167 0
171 -172 -165 0
-171 -172 165 0
171 172 -167 165 0
-171 172 -167 -165 0
-173 167 0
171 -173 165 0
-171 -173 -165 0
171 173 -167 -165 0
-171 173 -167 165 0
174 175 -170 0
174 -170 171 0
-174 175 170 0
-174 170 171 0
174 -170 -167 0
-174 170 -167 0
174 -175 170 167 -171 0
-174 -175 -170 167 -171 0
175 -167 171 0
-175 167 171 0
-176 171 0
175 -176 -167 0
-175 -176 167 0
175 176 167 -171 0
-175 176 -167 -171 0
-177 171 0
175 -177 167 0
-175 -177 -167 0
175 177 -167 -171 0
-175 177 167 -171 0
178 -174 175 0
178 -174 171 0
-178 174 175 0
-178 174 171 0
178 -179 -174 0
-178 -179 174 0
178 179 174 -175 -171 0
-178 179 -174 -175 -171 0
179 175 -171 0
-179 175 171 0
-180 175 0
179 -180 -171 0
-179 -180 171 0
179 180 -175 171 0
-179 180 -175 -171 0
-181 175 0
179 -181 171 0
-179 -181 -171 0
179 181 -175 -171 0
-179 181 -175 171 0
182 -178 163 0
182 -178 158 0
-182 178 163 0
-182 178 158 0
182 178 -163 -158 0
-182 -178 -163 -158 0
183 163 -158 0
183 -163 158 0
-183 163 158 0
-183 -163 -158 0
184 185 -182 0
184 -182 183 0
-184 185 182 0
-184 182 183 0
184 -182 -163 0
-184 182 -163 0
184 -185 182 163 -183 0
-184 -185 -182 163 -183 0
185 -163 183 0
-185 163 183 0
-186 183 0
185 -186 -163 0
-185 -186 163 0
185 186 163 -183 0
-185 186 -163 -183 0
-187 183 0
185 -187 163 0
-185 -187 -163 0
185 187 -163 -183 0
-185 187 163 -183 0
188 -184 185 0
188 -184 183 0
-188 184 185 0
-188 184 183 0
188 -189 -184 0
-188 -189 184 0
188 189 184 -185 -183 0
-188 189 -184 -185 -183 0
189 185 -183 0
-189 185 183 0
-190 185 0
189 -190 -183 0
-189 -190 183 0
189 190 -185 183 0
-189 190 -185 -183 0
-191 185 0
189 -191 183 0
-189 -191 -183 0
189 191 -185 -183 0
-189 191 -185 183 0
192 193 -188 0
192 -188 189 0
-192 193 188 0
-192 188 189 0
192 -188 -185 0
-192 188 -185 0
192 -193 188 185 -189 0
-192 -193 -188 185 -189 0
193 -185 189 0
-193 185 189 0
-194 189 0
193 -194 -185 0
-193 -194 185 0
193 194 185 -189 0
-193 194 -185 -189 0
-195 189 0
193 -195 185 0
-193 -195 -185 0
193 195 -185 -189 0
-193 195 185 -189 0
196 -192 193 0
196 -192 189 0
-196 192 193 0
-196 192 189 0
196 -197 -192 0
-196 -197 192 0
196 197 192 -193 -189 0
-196 197 -192 -193 -189 0
197 193 -189 0
-197 193 189 0
-198 193 0
197 -198 -189 0
-197 -198 189 0
197 198 -193 189 0
-197 198 -193 -189 0
-199 193 0
197 -199 189 0
-197 -199 -189 0
197 199 -193 -189 0
-197 199 -193 189 0
